1947 7914
5963 1475
2316 5505
5016 6360
2732 1645
6811 8863
2519 8112
7829 8928
8695 5693
1048 8278
9207 2417
5118 7713
7848 1152
2886 4699
3014 778
7373 8419
6912 2099
9941 6790
6031 3109
280 4281
8016 1462
3760 268
7273 6635
4629 9662
9331 8682
7047 1139
1321 3899
5659 772
5300 2533
7145 5165
2885 7671
8824 4210
6183 9033
4988 6763
747 9899
7834 9515
9827 6175
9701 6045
2124 2999
4034 8729
2311 3902
8570 8515
8256 9323
5696 67
2290 2271
2177 9841
7265 1690
1549 4540
3249 3828
3311 7110
